proyfinal/src/viki/013/experimentInOfficeAgust.take6.output/715265ea-eedc-49b3-882c-f80bda4ec081.als.dat
{'cnf.clauses': '118081',
 'cnf.totvars': '69608',
 'conflict literals': '1',
 'conflicts': '2',
 'decisions': '424',
 'memused.mb': '17.60',
 'outcome': 'UNSAT',
 'propagations': '19073',
 'restarts': '1',
 'solver.msecs': 34,
 'task.msecs': 92}
