proyfinal/src/viki/013/experimentInOfficeAgust.take6.output/715265ea-eedc-49b3-882c-f80bda4ec081.als.out
Reading from standard input... Use '--help' for help.
============================[ Problem Statistics ]=============================
|                                                                             |
|  Number of variables:         69608                                         |
|  Number of clauses:          118081                                         |
|  Parse time:                   0.02 s                                       |
|                                                                             |
============================[ Search Statistics ]==============================
| Conflicts |          ORIGINAL         |          LEARNT          | Progress |
|           |    Vars  Clauses Literals |    Limit  Clauses Lit/Cl |          |
===============================================================================
===============================================================================
restarts              : 1
conflicts             : 2              (58 /sec)
decisions             : 424            (0.00 % random) (12307 /sec)
propagations          : 19073          (553595 /sec)
conflict literals     : 1              (0.00 % deleted)
Memory used           : 17.60 MB
CPU time              : 0.034453 s

UNSATISFIABLE
